32      4       
10      10      10      10      
0       0       0       0       0       3       2       3       4       
5       1       1       0       1       2       5       6       
3       0       4       1       6       2       6       8       
10      4       5       3       0       2       6       8       
2       0       4       4       2       2       7       8       
10      6       0       4       3       1       7       
8       3       4       6       0       2       9       10      
2       6       3       3       0       2       9       10      
10      0       5       5       2       1       11      
8       0       4       2       2       1       11      
7       5       4       0       3       3       12      13      14      
8       4       2       8       0       2       15      17      
7       5       0       5       5       2       15      17      
8       4       3       0       4       1       15      
6       0       7       3       4       1       16      
9       0       2       3       2       1       18      
1       7       0       5       3       1       18      
7       0       3       2       5       2       19      23      
3       0       7       4       4       2       20      21      
10      3       0       4       5       2       22      25      
4       0       7       6       4       1       22      
4       0       4       4       4       1       24      
3       4       2       5       0       1       24      
9       0       6       7       9       3       26      27      28      
1       6       3       0       5       2       26      27      
7       6       0       4       6       3       29      30      31      
7       1       1       1       0       2       29      30      
1       1       7       0       3       2       29      30      
3       2       0       2       6       1       32      
4       5       6       5       0       1       32      
3       3       2       0       4       1       32      
0       0       0       0       0       0       
